examples/dynamic/debug12/ball_count_2d_hill_simple.02.qfree_global_4.smt2
(set-info :smt-lib-version 2.6)
(set-logic QF_NRA)
(set-info :source |Benchmarks generated from hycomp (https://es-static.fbk.eu/tools/hycomp/). BMC instances of non-linear hybrid automata taken from: Alessandro Cimatti, Sergio Mover, Stefano Tonetta, A quantifier-free SMT encoding of non-linear hybrid automata, FMCAD 2012 and Alessandro Cimatti, Sergio Mover, Stefano Tonetta, Quantier-free encoding of invariants for Hybrid Systems, Formal Methods in System Design. This instance solves a BMC problem of depth 4 and uses the encoding obtained with quantifier elimination using qepcad encoding. Contacts: Sergio Mover (mover@fbk.eu), Stefano Tonetta (tonettas@fbk.eu), Alessandro Cimatti (cimatti@fbk.eu).|)
(set-info :category "industrial")
(set-info :status sat)
;; MathSAT API call trace
;; generated on Mon Mar 19 10:49:26 2012
(declare-fun b.event_is_timed__AT0 () Bool)
(declare-fun b.counter.0__AT3 () Bool)
(declare-fun b.time__AT0 () Real)
(declare-fun b.EVENT.1__AT1 () Bool)
(declare-fun b.counter.1__AT2 () Bool)
(declare-fun b.delta__AT0 () Real)
(declare-fun b.x__AT3 () Real)
(declare-fun b.y__AT4 () Real)
(declare-fun b.y__AT2 () Real)
(declare-fun b.time__AT4 () Real)
(declare-fun b.EVENT.1__AT3 () Bool)
(declare-fun b.counter.0__AT4 () Bool)
(declare-fun b.delta__AT4 () Real)
(declare-fun b.counter.1__AT4 () Bool)
(declare-fun b.x__AT4 () Real)
(declare-fun b.EVENT.0__AT4 () Bool)
(declare-fun b.counter.2__AT4 () Bool)
(declare-fun b.y__AT0 () Real)
(declare-fun b.speed_y__AT2 () Real)
(declare-fun b.EVENT.1__AT4 () Bool)
(declare-fun b.counter.3__AT4 () Bool)
(declare-fun b.speed_y__AT3 () Real)
(declare-fun b.counter.0__AT0 () Bool)
(declare-fun b.EVENT.1__AT0 () Bool)
(declare-fun b.EVENT.0__AT0 () Bool)
(declare-fun b.bool_atom__AT4 () Bool)
(declare-fun b.counter.3__AT0 () Bool)
(declare-fun b.counter.1__AT0 () Bool)
(declare-fun b.counter.1__AT3 () Bool)
(declare-fun b.bool_atom__AT1 () Bool)
(declare-fun b.counter.2__AT3 () Bool)
(declare-fun b.speed_y__AT4 () Real)
(declare-fun b.counter.3__AT3 () Bool)
(declare-fun b.bool_atom__AT3 () Bool)
(declare-fun b.g__AT0 () Real)
(declare-fun b.event_is_timed__AT1 () Bool)
(declare-fun b.speed_y__AT0 () Real)
(declare-fun b.y__AT1 () Real)
(declare-fun b.event_is_timed__AT2 () Bool)
(declare-fun b.counter.2__AT0 () Bool)
(declare-fun b.counter.0__AT1 () Bool)
(declare-fun b.counter.1__AT1 () Bool)
(declare-fun b.counter.2__AT1 () Bool)
(declare-fun b.counter.2__AT2 () Bool)
(declare-fun b.time__AT3 () Real)
(declare-fun b.time__AT2 () Real)
(declare-fun b.counter.3__AT1 () Bool)
(declare-fun b.x__AT1 () Real)
(declare-fun b.bool_atom__AT0 () Bool)
(declare-fun b.counter.3__AT2 () Bool)
(declare-fun b.event_is_timed__AT3 () Bool)
(declare-fun b.delta__AT3 () Real)
(declare-fun b.x__AT0 () Real)
(declare-fun b.delta__AT2 () Real)
(declare-fun b.bool_atom__AT2 () Bool)
(declare-fun b.EVENT.0__AT3 () Bool)
(declare-fun b.EVENT.0__AT2 () Bool)
(declare-fun b.delta__AT1 () Real)
(declare-fun b.EVENT.1__AT2 () Bool)
(declare-fun b.speed_y__AT1 () Real)
(declare-fun b.x__AT2 () Real)
(declare-fun b.event_is_timed__AT4 () Bool)
(declare-fun b.y__AT3 () Real)
(declare-fun b.time__AT1 () Real)
(declare-fun b.EVENT.0__AT1 () Bool)
(declare-fun b.counter.0__AT2 () Bool)
(assert (let ((.def_801 (* 5.0 b.delta__AT4)))
(let ((.def_802 (* b.delta__AT4 .def_801)))
(let ((.def_803 (* (- 1.0) .def_802)))
(let ((.def_799 (* b.speed_y__AT4 b.delta__AT4)))
(let ((.def_806 (+ .def_799 .def_803)))
(let ((.def_796 (* b.x__AT4 b.x__AT4)))
(let ((.def_807 (+ .def_796 .def_806)))
(let ((.def_808 (+ b.y__AT4 .def_807)))
(let ((.def_809 (<= 0.0 .def_808)))
(let ((.def_797 (+ b.y__AT4 .def_796)))
(let ((.def_798 (<= 0.0 .def_797)))
(let ((.def_810 (and .def_798 .def_809)))
(let ((.def_794 (<= 0.0 b.delta__AT4)))
(let ((.def_795 (not .def_794)))
(let ((.def_811 (or .def_795 .def_810)))
(let ((.def_778 (not b.EVENT.0__AT4)))
(let ((.def_776 (not b.EVENT.1__AT4)))
(let ((.def_791 (and .def_776 .def_778)))
(let ((.def_792 (not .def_791)))
(let ((.def_812 (or .def_792 .def_811)))
(let ((.def_521 (not b.counter.0__AT3)))
(let ((.def_511 (not b.counter.1__AT3)))
(let ((.def_787 (and .def_511 .def_521)))
(let ((.def_516 (not b.counter.2__AT3)))
(let ((.def_788 (and .def_516 .def_787)))
(let ((.def_781 (* (- 1.0) b.x__AT4)))
(let ((.def_782 (* b.x__AT4 .def_781)))
(let ((.def_783 (<= .def_782 b.y__AT4)))
(let ((.def_57 (<= b.g__AT0 10.0 )))
(let ((.def_56 (<= 8.0 b.g__AT0)))
(let ((.def_58 (and .def_56 .def_57)))
(let ((.def_784 (and .def_58 .def_783)))
(let ((.def_779 (or .def_776 .def_778)))
(let ((.def_6 (not b.counter.0__AT4)))
(let ((.def_4 (not b.counter.1__AT4)))
(let ((.def_769 (or .def_4 .def_6)))
(let ((.def_773 (or b.counter.3__AT4 .def_769)))
(let ((.def_770 (or b.counter.2__AT4 .def_769)))
(let ((.def_9 (not b.counter.2__AT4)))
(let ((.def_768 (or .def_6 .def_9)))
(let ((.def_771 (and .def_768 .def_770)))
(let ((.def_706 (not b.counter.3__AT4)))
(let ((.def_772 (or .def_706 .def_771)))
(let ((.def_774 (and .def_772 .def_773)))
(let ((.def_780 (and .def_774 .def_779)))
(let ((.def_785 (and .def_780 .def_784)))
(let ((.def_618 (<= 0.0 b.delta__AT3)))
(let ((.def_602 (not b.EVENT.0__AT3)))
(let ((.def_600 (not b.EVENT.1__AT3)))
(let ((.def_615 (and .def_600 .def_602)))
(let ((.def_616 (not .def_615)))
(let ((.def_764 (or .def_616 .def_618)))
(let ((.def_765 (or b.EVENT.1__AT3 .def_764)))
(let ((.def_674 (= b.bool_atom__AT3 b.bool_atom__AT4)))
(let ((.def_670 (= b.counter.0__AT4 b.counter.0__AT3)))
(let ((.def_668 (= b.counter.1__AT4 b.counter.1__AT3)))
(let ((.def_666 (= b.counter.2__AT4 b.counter.2__AT3)))
(let ((.def_665 (= b.counter.3__AT3 b.counter.3__AT4)))
(let ((.def_667 (and .def_665 .def_666)))
(let ((.def_669 (and .def_667 .def_668)))
(let ((.def_671 (and .def_669 .def_670)))
(let ((.def_760 (and .def_671 .def_674)))
(let ((.def_761 (or .def_616 .def_760)))
(let ((.def_762 (or b.EVENT.1__AT3 .def_761)))
(let ((.def_196 (* (- 1.0) b.g__AT0)))
(let ((.def_749 (* .def_196 b.delta__AT3)))
(let ((.def_750 (* (- 1.0) b.speed_y__AT4)))
(let ((.def_753 (+ .def_750 .def_749)))
(let ((.def_754 (+ b.speed_y__AT3 .def_753)))
(let ((.def_755 (= .def_754 0.0 )))
(let ((.def_738 (* b.delta__AT3 b.delta__AT3)))
(let ((.def_199 (* (/ 1 2) .def_196)))
(let ((.def_739 (* .def_199 .def_738)))
(let ((.def_740 (* (- 1.0) b.y__AT4)))
(let ((.def_744 (+ .def_740 .def_739)))
(let ((.def_623 (* b.speed_y__AT3 b.delta__AT3)))
(let ((.def_745 (+ .def_623 .def_744)))
(let ((.def_746 (+ b.y__AT3 .def_745)))
(let ((.def_747 (= .def_746 0.0 )))
(let ((.def_656 (= b.x__AT3 b.x__AT4)))
(let ((.def_748 (and .def_656 .def_747)))
(let ((.def_756 (and .def_748 .def_755)))
(let ((.def_757 (or .def_616 .def_756)))
(let ((.def_659 (= b.y__AT3 b.y__AT4)))
(let ((.def_733 (and .def_656 .def_659)))
(let ((.def_662 (= b.speed_y__AT3 b.speed_y__AT4)))
(let ((.def_734 (and .def_662 .def_733)))
(let ((.def_730 (= b.delta__AT3 0.0 )))
(let ((.def_731 (and .def_615 .def_730)))
(let ((.def_732 (not .def_731)))
(let ((.def_735 (or .def_732 .def_734)))
(let ((.def_736 (or b.EVENT.1__AT3 .def_735)))
(let ((.def_723 (and .def_662 .def_671)))
(let ((.def_724 (or b.bool_atom__AT3 .def_723)))
(let ((.def_698 (or .def_6 b.counter.0__AT3)))
(let ((.def_697 (or b.counter.0__AT4 .def_521)))
(let ((.def_699 (and .def_697 .def_698)))
(let ((.def_700 (and .def_4 .def_699)))
(let ((.def_701 (or b.counter.1__AT3 .def_700)))
(let ((.def_696 (or b.counter.1__AT4 .def_511)))
(let ((.def_702 (and .def_696 .def_701)))
(let ((.def_714 (and .def_9 .def_702)))
(let ((.def_715 (or b.counter.2__AT3 .def_714)))
(let ((.def_709 (and .def_4 .def_521)))
(let ((.def_710 (or b.counter.1__AT3 .def_709)))
(let ((.def_711 (and .def_696 .def_710)))
(let ((.def_712 (and b.counter.2__AT4 .def_711)))
(let ((.def_713 (or .def_516 .def_712)))
(let ((.def_716 (and .def_713 .def_715)))
(let ((.def_717 (and b.counter.3__AT4 .def_716)))
(let ((.def_718 (or b.counter.3__AT3 .def_717)))
(let ((.def_703 (and b.counter.2__AT4 .def_702)))
(let ((.def_704 (or b.counter.2__AT3 .def_703)))
(let ((.def_692 (or b.counter.1__AT4 b.counter.1__AT3)))
(let ((.def_690 (and .def_4 b.counter.0__AT4)))
(let ((.def_691 (or .def_511 .def_690)))
(let ((.def_693 (and .def_691 .def_692)))
(let ((.def_694 (and .def_9 .def_693)))
(let ((.def_695 (or .def_516 .def_694)))
(let ((.def_705 (and .def_695 .def_704)))
(let ((.def_707 (and .def_705 .def_706)))
(let ((.def_530 (not b.counter.3__AT3)))
(let ((.def_708 (or .def_530 .def_707)))
(let ((.def_719 (and .def_708 .def_718)))
(let ((.def_687 (* b.speed_y__AT4 b.speed_y__AT4)))
(let ((.def_508 (* b.speed_y__AT3 b.speed_y__AT3)))
(let ((.def_688 (= .def_508 .def_687)))
(let ((.def_685 (+ b.speed_y__AT3 b.speed_y__AT4)))
(let ((.def_686 (= .def_685 0.0 )))
(let ((.def_689 (and .def_686 .def_688)))
(let ((.def_720 (and .def_689 .def_719)))
(let ((.def_684 (not b.bool_atom__AT3)))
(let ((.def_721 (or .def_684 .def_720)))
(let ((.def_680 (<= 0.0 b.speed_y__AT3)))
(let ((.def_681 (not .def_680)))
(let ((.def_605 (* (- 1.0) b.x__AT3)))
(let ((.def_606 (* b.x__AT3 .def_605)))
(let ((.def_679 (= b.y__AT3 .def_606)))
(let ((.def_682 (and .def_679 .def_681)))
(let ((.def_683 (= b.bool_atom__AT3 .def_682)))
(let ((.def_722 (and .def_683 .def_721)))
(let ((.def_725 (and .def_722 .def_724)))
(let ((.def_726 (and .def_656 .def_725)))
(let ((.def_727 (and .def_659 .def_726)))
(let ((.def_728 (or .def_615 .def_727)))
(let ((.def_729 (or b.EVENT.1__AT3 .def_728)))
(let ((.def_737 (and .def_729 .def_736)))
(let ((.def_758 (and .def_737 .def_757)))
(let ((.def_643 (= b.time__AT3 b.time__AT4)))
(let ((.def_657 (and .def_643 .def_656)))
(let ((.def_660 (and .def_657 .def_659)))
(let ((.def_663 (and .def_660 .def_662)))
(let ((.def_672 (and .def_663 .def_671)))
(let ((.def_675 (and .def_672 .def_674)))
(let ((.def_676 (or .def_600 .def_675)))
(let ((.def_646 (* (- 1.0) b.time__AT4)))
(let ((.def_649 (+ b.delta__AT3 .def_646)))
(let ((.def_650 (+ b.time__AT3 .def_649)))
(let ((.def_651 (= .def_650 0.0 )))
(let ((.def_652 (or .def_616 .def_651)))
(let ((.def_653 (or b.EVENT.1__AT3 .def_652)))
(let ((.def_644 (or .def_615 .def_643)))
(let ((.def_645 (or b.EVENT.1__AT3 .def_644)))
(let ((.def_654 (and .def_645 .def_653)))
(let ((.def_677 (and .def_654 .def_676)))
(let ((.def_640 (= .def_616 b.event_is_timed__AT4)))
(let ((.def_638 (= b.event_is_timed__AT3 .def_615)))
(let ((.def_641 (and .def_638 .def_640)))
(let ((.def_678 (and .def_641 .def_677)))
(let ((.def_759 (and .def_678 .def_758)))
(let ((.def_763 (and .def_759 .def_762)))
(let ((.def_766 (and .def_763 .def_765)))
(let ((.def_767 (and .def_600 .def_766)))
(let ((.def_786 (and .def_767 .def_785)))
(let ((.def_789 (and .def_786 .def_788)))
(let ((.def_625 (* 5.0 b.delta__AT3)))
(let ((.def_626 (* b.delta__AT3 .def_625)))
(let ((.def_627 (* (- 1.0) .def_626)))
(let ((.def_630 (+ .def_623 .def_627)))
(let ((.def_620 (* b.x__AT3 b.x__AT3)))
(let ((.def_631 (+ .def_620 .def_630)))
(let ((.def_632 (+ b.y__AT3 .def_631)))
(let ((.def_633 (<= 0.0 .def_632)))
(let ((.def_621 (+ b.y__AT3 .def_620)))
(let ((.def_622 (<= 0.0 .def_621)))
(let ((.def_634 (and .def_622 .def_633)))
(let ((.def_619 (not .def_618)))
(let ((.def_635 (or .def_619 .def_634)))
(let ((.def_636 (or .def_616 .def_635)))
(let ((.def_339 (not b.counter.0__AT2)))
(let ((.def_329 (not b.counter.1__AT2)))
(let ((.def_611 (and .def_329 .def_339)))
(let ((.def_334 (not b.counter.2__AT2)))
(let ((.def_612 (and .def_334 .def_611)))
(let ((.def_607 (<= .def_606 b.y__AT3)))
(let ((.def_608 (and .def_58 .def_607)))
(let ((.def_603 (or .def_600 .def_602)))
(let ((.def_593 (or .def_511 .def_521)))
(let ((.def_597 (or b.counter.3__AT3 .def_593)))
(let ((.def_594 (or b.counter.2__AT3 .def_593)))
(let ((.def_592 (or .def_516 .def_521)))
(let ((.def_595 (and .def_592 .def_594)))
(let ((.def_596 (or .def_530 .def_595)))
(let ((.def_598 (and .def_596 .def_597)))
(let ((.def_604 (and .def_598 .def_603)))
(let ((.def_609 (and .def_604 .def_608)))
(let ((.def_436 (<= 0.0 b.delta__AT2)))
(let ((.def_420 (not b.EVENT.0__AT2)))
(let ((.def_418 (not b.EVENT.1__AT2)))
(let ((.def_433 (and .def_418 .def_420)))
(let ((.def_434 (not .def_433)))
(let ((.def_588 (or .def_434 .def_436)))
(let ((.def_589 (or b.EVENT.1__AT2 .def_588)))
(let ((.def_495 (= b.bool_atom__AT2 b.bool_atom__AT3)))
(let ((.def_491 (= b.counter.0__AT2 b.counter.0__AT3)))
(let ((.def_488 (= b.counter.1__AT2 b.counter.1__AT3)))
(let ((.def_485 (= b.counter.2__AT2 b.counter.2__AT3)))
(let ((.def_483 (= b.counter.3__AT2 b.counter.3__AT3)))
(let ((.def_486 (and .def_483 .def_485)))
(let ((.def_489 (and .def_486 .def_488)))
(let ((.def_492 (and .def_489 .def_491)))
(let ((.def_584 (and .def_492 .def_495)))
(let ((.def_585 (or .def_434 .def_584)))
(let ((.def_586 (or b.EVENT.1__AT2 .def_585)))
(let ((.def_573 (* .def_196 b.delta__AT2)))
(let ((.def_574 (* (- 1.0) b.speed_y__AT3)))
(let ((.def_577 (+ .def_574 .def_573)))
(let ((.def_578 (+ b.speed_y__AT2 .def_577)))
(let ((.def_579 (= .def_578 0.0 )))
(let ((.def_562 (* b.delta__AT2 b.delta__AT2)))
(let ((.def_563 (* .def_199 .def_562)))
(let ((.def_564 (* (- 1.0) b.y__AT3)))
(let ((.def_568 (+ .def_564 .def_563)))
(let ((.def_441 (* b.speed_y__AT2 b.delta__AT2)))
(let ((.def_569 (+ .def_441 .def_568)))
(let ((.def_570 (+ b.y__AT2 .def_569)))
(let ((.def_571 (= .def_570 0.0 )))
(let ((.def_474 (= b.x__AT2 b.x__AT3)))
(let ((.def_572 (and .def_474 .def_571)))
(let ((.def_580 (and .def_572 .def_579)))
(let ((.def_581 (or .def_434 .def_580)))
(let ((.def_477 (= b.y__AT2 b.y__AT3)))
(let ((.def_557 (and .def_474 .def_477)))
(let ((.def_480 (= b.speed_y__AT2 b.speed_y__AT3)))
(let ((.def_558 (and .def_480 .def_557)))
(let ((.def_554 (= b.delta__AT2 0.0 )))
(let ((.def_555 (and .def_433 .def_554)))
(let ((.def_556 (not .def_555)))
(let ((.def_559 (or .def_556 .def_558)))
(let ((.def_560 (or b.EVENT.1__AT2 .def_559)))
(let ((.def_547 (and .def_480 .def_492)))
(let ((.def_548 (or b.bool_atom__AT2 .def_547)))
(let ((.def_522 (or b.counter.0__AT2 .def_521)))
(let ((.def_520 (or .def_339 b.counter.0__AT3)))
(let ((.def_523 (and .def_520 .def_522)))
(let ((.def_524 (and .def_511 .def_523)))
(let ((.def_525 (or b.counter.1__AT2 .def_524)))
(let ((.def_519 (or .def_329 b.counter.1__AT3)))
(let ((.def_526 (and .def_519 .def_525)))
(let ((.def_538 (and .def_516 .def_526)))
(let ((.def_539 (or b.counter.2__AT2 .def_538)))
(let ((.def_533 (and .def_339 .def_511)))
(let ((.def_534 (or b.counter.1__AT2 .def_533)))
(let ((.def_535 (and .def_519 .def_534)))
(let ((.def_536 (and b.counter.2__AT3 .def_535)))
(let ((.def_537 (or .def_334 .def_536)))
(let ((.def_540 (and .def_537 .def_539)))
(let ((.def_541 (and b.counter.3__AT3 .def_540)))
(let ((.def_542 (or b.counter.3__AT2 .def_541)))
(let ((.def_527 (and b.counter.2__AT3 .def_526)))
(let ((.def_528 (or b.counter.2__AT2 .def_527)))
(let ((.def_514 (or b.counter.1__AT2 b.counter.1__AT3)))
(let ((.def_512 (and b.counter.0__AT3 .def_511)))
(let ((.def_513 (or .def_329 .def_512)))
(let ((.def_515 (and .def_513 .def_514)))
(let ((.def_517 (and .def_515 .def_516)))
(let ((.def_518 (or .def_334 .def_517)))
(let ((.def_529 (and .def_518 .def_528)))
(let ((.def_531 (and .def_529 .def_530)))
(let ((.def_348 (not b.counter.3__AT2)))
(let ((.def_532 (or .def_348 .def_531)))
(let ((.def_543 (and .def_532 .def_542)))
(let ((.def_326 (* b.speed_y__AT2 b.speed_y__AT2)))
(let ((.def_509 (= .def_326 .def_508)))
(let ((.def_506 (+ b.speed_y__AT2 b.speed_y__AT3)))
(let ((.def_507 (= .def_506 0.0 )))
(let ((.def_510 (and .def_507 .def_509)))
(let ((.def_544 (and .def_510 .def_543)))
(let ((.def_505 (not b.bool_atom__AT2)))
(let ((.def_545 (or .def_505 .def_544)))
(let ((.def_501 (<= 0.0 b.speed_y__AT2)))
(let ((.def_502 (not .def_501)))
(let ((.def_423 (* (- 1.0) b.x__AT2)))
(let ((.def_424 (* b.x__AT2 .def_423)))
(let ((.def_500 (= b.y__AT2 .def_424)))
(let ((.def_503 (and .def_500 .def_502)))
(let ((.def_504 (= b.bool_atom__AT2 .def_503)))
(let ((.def_546 (and .def_504 .def_545)))
(let ((.def_549 (and .def_546 .def_548)))
(let ((.def_550 (and .def_474 .def_549)))
(let ((.def_551 (and .def_477 .def_550)))
(let ((.def_552 (or .def_433 .def_551)))
(let ((.def_553 (or b.EVENT.1__AT2 .def_552)))
(let ((.def_561 (and .def_553 .def_560)))
(let ((.def_582 (and .def_561 .def_581)))
(let ((.def_461 (= b.time__AT2 b.time__AT3)))
(let ((.def_475 (and .def_461 .def_474)))
(let ((.def_478 (and .def_475 .def_477)))
(let ((.def_481 (and .def_478 .def_480)))
(let ((.def_493 (and .def_481 .def_492)))
(let ((.def_496 (and .def_493 .def_495)))
(let ((.def_497 (or .def_418 .def_496)))
(let ((.def_464 (* (- 1.0) b.time__AT3)))
(let ((.def_467 (+ b.delta__AT2 .def_464)))
(let ((.def_468 (+ b.time__AT2 .def_467)))
(let ((.def_469 (= .def_468 0.0 )))
(let ((.def_470 (or .def_434 .def_469)))
(let ((.def_471 (or b.EVENT.1__AT2 .def_470)))
(let ((.def_462 (or .def_433 .def_461)))
(let ((.def_463 (or b.EVENT.1__AT2 .def_462)))
(let ((.def_472 (and .def_463 .def_471)))
(let ((.def_498 (and .def_472 .def_497)))
(let ((.def_458 (= .def_434 b.event_is_timed__AT3)))
(let ((.def_456 (= b.event_is_timed__AT2 .def_433)))
(let ((.def_459 (and .def_456 .def_458)))
(let ((.def_499 (and .def_459 .def_498)))
(let ((.def_583 (and .def_499 .def_582)))
(let ((.def_587 (and .def_583 .def_586)))
(let ((.def_590 (and .def_587 .def_589)))
(let ((.def_591 (and .def_418 .def_590)))
(let ((.def_610 (and .def_591 .def_609)))
(let ((.def_613 (and .def_610 .def_612)))
(let ((.def_443 (* 5.0 b.delta__AT2)))
(let ((.def_444 (* b.delta__AT2 .def_443)))
(let ((.def_445 (* (- 1.0) .def_444)))
(let ((.def_448 (+ .def_441 .def_445)))
(let ((.def_438 (* b.x__AT2 b.x__AT2)))
(let ((.def_449 (+ .def_438 .def_448)))
(let ((.def_450 (+ b.y__AT2 .def_449)))
(let ((.def_451 (<= 0.0 .def_450)))
(let ((.def_439 (+ b.y__AT2 .def_438)))
(let ((.def_440 (<= 0.0 .def_439)))
(let ((.def_452 (and .def_440 .def_451)))
(let ((.def_437 (not .def_436)))
(let ((.def_453 (or .def_437 .def_452)))
(let ((.def_454 (or .def_434 .def_453)))
(let ((.def_155 (not b.counter.0__AT1)))
(let ((.def_145 (not b.counter.1__AT1)))
(let ((.def_429 (and .def_145 .def_155)))
(let ((.def_150 (not b.counter.2__AT1)))
(let ((.def_430 (and .def_150 .def_429)))
(let ((.def_425 (<= .def_424 b.y__AT2)))
(let ((.def_426 (and .def_58 .def_425)))
(let ((.def_421 (or .def_418 .def_420)))
(let ((.def_411 (or .def_329 .def_339)))
(let ((.def_415 (or b.counter.3__AT2 .def_411)))
(let ((.def_412 (or b.counter.2__AT2 .def_411)))
(let ((.def_410 (or .def_334 .def_339)))
(let ((.def_413 (and .def_410 .def_412)))
(let ((.def_414 (or .def_348 .def_413)))
(let ((.def_416 (and .def_414 .def_415)))
(let ((.def_422 (and .def_416 .def_421)))
(let ((.def_427 (and .def_422 .def_426)))
(let ((.def_254 (<= 0.0 b.delta__AT1)))
(let ((.def_240 (not b.EVENT.0__AT1)))
(let ((.def_238 (not b.EVENT.1__AT1)))
(let ((.def_251 (and .def_238 .def_240)))
(let ((.def_252 (not .def_251)))
(let ((.def_406 (or .def_252 .def_254)))
(let ((.def_407 (or b.EVENT.1__AT1 .def_406)))
(let ((.def_313 (= b.bool_atom__AT1 b.bool_atom__AT2)))
(let ((.def_309 (= b.counter.0__AT1 b.counter.0__AT2)))
(let ((.def_306 (= b.counter.1__AT1 b.counter.1__AT2)))
(let ((.def_303 (= b.counter.2__AT1 b.counter.2__AT2)))
(let ((.def_301 (= b.counter.3__AT1 b.counter.3__AT2)))
(let ((.def_304 (and .def_301 .def_303)))
(let ((.def_307 (and .def_304 .def_306)))
(let ((.def_310 (and .def_307 .def_309)))
(let ((.def_402 (and .def_310 .def_313)))
(let ((.def_403 (or .def_252 .def_402)))
(let ((.def_404 (or b.EVENT.1__AT1 .def_403)))
(let ((.def_391 (* .def_196 b.delta__AT1)))
(let ((.def_392 (* (- 1.0) b.speed_y__AT2)))
(let ((.def_395 (+ .def_392 .def_391)))
(let ((.def_396 (+ b.speed_y__AT1 .def_395)))
(let ((.def_397 (= .def_396 0.0 )))
(let ((.def_380 (* b.delta__AT1 b.delta__AT1)))
(let ((.def_381 (* .def_199 .def_380)))
(let ((.def_382 (* (- 1.0) b.y__AT2)))
(let ((.def_386 (+ .def_382 .def_381)))
(let ((.def_259 (* b.speed_y__AT1 b.delta__AT1)))
(let ((.def_387 (+ .def_259 .def_386)))
(let ((.def_388 (+ b.y__AT1 .def_387)))
(let ((.def_389 (= .def_388 0.0 )))
(let ((.def_292 (= b.x__AT1 b.x__AT2)))
(let ((.def_390 (and .def_292 .def_389)))
(let ((.def_398 (and .def_390 .def_397)))
(let ((.def_399 (or .def_252 .def_398)))
(let ((.def_295 (= b.y__AT1 b.y__AT2)))
(let ((.def_375 (and .def_292 .def_295)))
(let ((.def_298 (= b.speed_y__AT1 b.speed_y__AT2)))
(let ((.def_376 (and .def_298 .def_375)))
(let ((.def_372 (= b.delta__AT1 0.0 )))
(let ((.def_373 (and .def_251 .def_372)))
(let ((.def_374 (not .def_373)))
(let ((.def_377 (or .def_374 .def_376)))
(let ((.def_378 (or b.EVENT.1__AT1 .def_377)))
(let ((.def_365 (and .def_298 .def_310)))
(let ((.def_366 (or b.bool_atom__AT1 .def_365)))
(let ((.def_340 (or b.counter.0__AT1 .def_339)))
(let ((.def_338 (or .def_155 b.counter.0__AT2)))
(let ((.def_341 (and .def_338 .def_340)))
(let ((.def_342 (and .def_329 .def_341)))
(let ((.def_343 (or b.counter.1__AT1 .def_342)))
(let ((.def_337 (or .def_145 b.counter.1__AT2)))
(let ((.def_344 (and .def_337 .def_343)))
(let ((.def_356 (and .def_334 .def_344)))
(let ((.def_357 (or b.counter.2__AT1 .def_356)))
(let ((.def_351 (and .def_155 .def_329)))
(let ((.def_352 (or b.counter.1__AT1 .def_351)))
(let ((.def_353 (and .def_337 .def_352)))
(let ((.def_354 (and b.counter.2__AT2 .def_353)))
(let ((.def_355 (or .def_150 .def_354)))
(let ((.def_358 (and .def_355 .def_357)))
(let ((.def_359 (and b.counter.3__AT2 .def_358)))
(let ((.def_360 (or b.counter.3__AT1 .def_359)))
(let ((.def_345 (and b.counter.2__AT2 .def_344)))
(let ((.def_346 (or b.counter.2__AT1 .def_345)))
(let ((.def_332 (or b.counter.1__AT1 b.counter.1__AT2)))
(let ((.def_330 (and b.counter.0__AT2 .def_329)))
(let ((.def_331 (or .def_145 .def_330)))
(let ((.def_333 (and .def_331 .def_332)))
(let ((.def_335 (and .def_333 .def_334)))
(let ((.def_336 (or .def_150 .def_335)))
(let ((.def_347 (and .def_336 .def_346)))
(let ((.def_349 (and .def_347 .def_348)))
(let ((.def_164 (not b.counter.3__AT1)))
(let ((.def_350 (or .def_164 .def_349)))
(let ((.def_361 (and .def_350 .def_360)))
(let ((.def_141 (* b.speed_y__AT1 b.speed_y__AT1)))
(let ((.def_327 (= .def_141 .def_326)))
(let ((.def_324 (+ b.speed_y__AT1 b.speed_y__AT2)))
(let ((.def_325 (= .def_324 0.0 )))
(let ((.def_328 (and .def_325 .def_327)))
(let ((.def_362 (and .def_328 .def_361)))
(let ((.def_323 (not b.bool_atom__AT1)))
(let ((.def_363 (or .def_323 .def_362)))
(let ((.def_319 (<= 0.0 b.speed_y__AT1)))
(let ((.def_320 (not .def_319)))
(let ((.def_243 (* (- 1.0) b.x__AT1)))
(let ((.def_244 (* b.x__AT1 .def_243)))
(let ((.def_318 (= b.y__AT1 .def_244)))
(let ((.def_321 (and .def_318 .def_320)))
(let ((.def_322 (= b.bool_atom__AT1 .def_321)))
(let ((.def_364 (and .def_322 .def_363)))
(let ((.def_367 (and .def_364 .def_366)))
(let ((.def_368 (and .def_292 .def_367)))
(let ((.def_369 (and .def_295 .def_368)))
(let ((.def_370 (or .def_251 .def_369)))
(let ((.def_371 (or b.EVENT.1__AT1 .def_370)))
(let ((.def_379 (and .def_371 .def_378)))
(let ((.def_400 (and .def_379 .def_399)))
(let ((.def_279 (= b.time__AT1 b.time__AT2)))
(let ((.def_293 (and .def_279 .def_292)))
(let ((.def_296 (and .def_293 .def_295)))
(let ((.def_299 (and .def_296 .def_298)))
(let ((.def_311 (and .def_299 .def_310)))
(let ((.def_314 (and .def_311 .def_313)))
(let ((.def_315 (or .def_238 .def_314)))
(let ((.def_282 (* (- 1.0) b.time__AT2)))
(let ((.def_285 (+ b.delta__AT1 .def_282)))
(let ((.def_286 (+ b.time__AT1 .def_285)))
(let ((.def_287 (= .def_286 0.0 )))
(let ((.def_288 (or .def_252 .def_287)))
(let ((.def_289 (or b.EVENT.1__AT1 .def_288)))
(let ((.def_280 (or .def_251 .def_279)))
(let ((.def_281 (or b.EVENT.1__AT1 .def_280)))
(let ((.def_290 (and .def_281 .def_289)))
(let ((.def_316 (and .def_290 .def_315)))
(let ((.def_276 (= .def_252 b.event_is_timed__AT2)))
(let ((.def_274 (= b.event_is_timed__AT1 .def_251)))
(let ((.def_277 (and .def_274 .def_276)))
(let ((.def_317 (and .def_277 .def_316)))
(let ((.def_401 (and .def_317 .def_400)))
(let ((.def_405 (and .def_401 .def_404)))
(let ((.def_408 (and .def_405 .def_407)))
(let ((.def_409 (and .def_238 .def_408)))
(let ((.def_428 (and .def_409 .def_427)))
(let ((.def_431 (and .def_428 .def_430)))
(let ((.def_261 (* 5.0 b.delta__AT1)))
(let ((.def_262 (* b.delta__AT1 .def_261)))
(let ((.def_263 (* (- 1.0) .def_262)))
(let ((.def_266 (+ .def_259 .def_263)))
(let ((.def_256 (* b.x__AT1 b.x__AT1)))
(let ((.def_267 (+ .def_256 .def_266)))
(let ((.def_268 (+ b.y__AT1 .def_267)))
(let ((.def_269 (<= 0.0 .def_268)))
(let ((.def_257 (+ b.y__AT1 .def_256)))
(let ((.def_258 (<= 0.0 .def_257)))
(let ((.def_270 (and .def_258 .def_269)))
(let ((.def_255 (not .def_254)))
(let ((.def_271 (or .def_255 .def_270)))
(let ((.def_272 (or .def_252 .def_271)))
(let ((.def_245 (<= .def_244 b.y__AT1)))
(let ((.def_246 (and .def_58 .def_245)))
(let ((.def_241 (or .def_238 .def_240)))
(let ((.def_231 (or .def_145 .def_155)))
(let ((.def_235 (or b.counter.3__AT1 .def_231)))
(let ((.def_232 (or b.counter.2__AT1 .def_231)))
(let ((.def_230 (or .def_150 .def_155)))
(let ((.def_233 (and .def_230 .def_232)))
(let ((.def_234 (or .def_164 .def_233)))
(let ((.def_236 (and .def_234 .def_235)))
(let ((.def_242 (and .def_236 .def_241)))
(let ((.def_247 (and .def_242 .def_246)))
(let ((.def_66 (<= 0.0 b.delta__AT0)))
(let ((.def_46 (not b.EVENT.0__AT0)))
(let ((.def_44 (not b.EVENT.1__AT0)))
(let ((.def_63 (and .def_44 .def_46)))
(let ((.def_64 (not .def_63)))
(let ((.def_226 (or .def_64 .def_66)))
(let ((.def_227 (or b.EVENT.1__AT0 .def_226)))
(let ((.def_128 (= b.bool_atom__AT0 b.bool_atom__AT1)))
(let ((.def_123 (= b.counter.0__AT0 b.counter.0__AT1)))
(let ((.def_120 (= b.counter.1__AT0 b.counter.1__AT1)))
(let ((.def_117 (= b.counter.2__AT0 b.counter.2__AT1)))
(let ((.def_115 (= b.counter.3__AT0 b.counter.3__AT1)))
(let ((.def_118 (and .def_115 .def_117)))
(let ((.def_121 (and .def_118 .def_120)))
(let ((.def_124 (and .def_121 .def_123)))
(let ((.def_222 (and .def_124 .def_128)))
(let ((.def_223 (or .def_64 .def_222)))
(let ((.def_224 (or b.EVENT.1__AT0 .def_223)))
(let ((.def_211 (* b.delta__AT0 .def_196)))
(let ((.def_212 (* (- 1.0) b.speed_y__AT1)))
(let ((.def_215 (+ .def_212 .def_211)))
(let ((.def_216 (+ b.speed_y__AT0 .def_215)))
(let ((.def_217 (= .def_216 0.0 )))
(let ((.def_200 (* b.delta__AT0 b.delta__AT0)))
(let ((.def_201 (* .def_199 .def_200)))
(let ((.def_203 (* (- 1.0) b.y__AT1)))
(let ((.def_206 (+ .def_203 .def_201)))
(let ((.def_72 (* b.delta__AT0 b.speed_y__AT0)))
(let ((.def_207 (+ .def_72 .def_206)))
(let ((.def_208 (+ b.y__AT0 .def_207)))
(let ((.def_209 (= .def_208 0.0 )))
(let ((.def_106 (= b.x__AT0 b.x__AT1)))
(let ((.def_210 (and .def_106 .def_209)))
(let ((.def_218 (and .def_210 .def_217)))
(let ((.def_219 (or .def_64 .def_218)))
(let ((.def_109 (= b.y__AT0 b.y__AT1)))
(let ((.def_191 (and .def_106 .def_109)))
(let ((.def_112 (= b.speed_y__AT0 b.speed_y__AT1)))
(let ((.def_192 (and .def_112 .def_191)))
(let ((.def_188 (= b.delta__AT0 0.0 )))
(let ((.def_189 (and .def_63 .def_188)))
(let ((.def_190 (not .def_189)))
(let ((.def_193 (or .def_190 .def_192)))
(let ((.def_194 (or b.EVENT.1__AT0 .def_193)))
(let ((.def_181 (and .def_112 .def_124)))
(let ((.def_182 (or b.bool_atom__AT0 .def_181)))
(let ((.def_156 (or b.counter.0__AT0 .def_155)))
(let ((.def_27 (not b.counter.0__AT0)))
(let ((.def_154 (or .def_27 b.counter.0__AT1)))
(let ((.def_157 (and .def_154 .def_156)))
(let ((.def_158 (and .def_145 .def_157)))
(let ((.def_159 (or b.counter.1__AT0 .def_158)))
(let ((.def_25 (not b.counter.1__AT0)))
(let ((.def_153 (or .def_25 b.counter.1__AT1)))
(let ((.def_160 (and .def_153 .def_159)))
(let ((.def_172 (and .def_150 .def_160)))
(let ((.def_173 (or b.counter.2__AT0 .def_172)))
(let ((.def_167 (and .def_27 .def_145)))
(let ((.def_168 (or b.counter.1__AT0 .def_167)))
(let ((.def_169 (and .def_153 .def_168)))
(let ((.def_170 (and b.counter.2__AT1 .def_169)))
(let ((.def_30 (not b.counter.2__AT0)))
(let ((.def_171 (or .def_30 .def_170)))
(let ((.def_174 (and .def_171 .def_173)))
(let ((.def_175 (and b.counter.3__AT1 .def_174)))
(let ((.def_176 (or b.counter.3__AT0 .def_175)))
(let ((.def_161 (and b.counter.2__AT1 .def_160)))
(let ((.def_162 (or b.counter.2__AT0 .def_161)))
(let ((.def_148 (or b.counter.1__AT0 b.counter.1__AT1)))
(let ((.def_146 (and b.counter.0__AT1 .def_145)))
(let ((.def_147 (or .def_25 .def_146)))
(let ((.def_149 (and .def_147 .def_148)))
(let ((.def_151 (and .def_149 .def_150)))
(let ((.def_152 (or .def_30 .def_151)))
(let ((.def_163 (and .def_152 .def_162)))
(let ((.def_165 (and .def_163 .def_164)))
(let ((.def_33 (not b.counter.3__AT0)))
(let ((.def_166 (or .def_33 .def_165)))
(let ((.def_177 (and .def_166 .def_176)))
(let ((.def_142 (* b.speed_y__AT0 b.speed_y__AT0)))
(let ((.def_143 (= .def_141 .def_142)))
(let ((.def_139 (+ b.speed_y__AT0 b.speed_y__AT1)))
(let ((.def_140 (= .def_139 0.0 )))
(let ((.def_144 (and .def_140 .def_143)))
(let ((.def_178 (and .def_144 .def_177)))
(let ((.def_138 (not b.bool_atom__AT0)))
(let ((.def_179 (or .def_138 .def_178)))
(let ((.def_134 (<= 0.0 b.speed_y__AT0)))
(let ((.def_135 (not .def_134)))
(let ((.def_51 (* (- 1.0) b.x__AT0)))
(let ((.def_52 (* b.x__AT0 .def_51)))
(let ((.def_133 (= b.y__AT0 .def_52)))
(let ((.def_136 (and .def_133 .def_135)))
(let ((.def_137 (= b.bool_atom__AT0 .def_136)))
(let ((.def_180 (and .def_137 .def_179)))
(let ((.def_183 (and .def_180 .def_182)))
(let ((.def_184 (and .def_106 .def_183)))
(let ((.def_185 (and .def_109 .def_184)))
(let ((.def_186 (or .def_63 .def_185)))
(let ((.def_187 (or b.EVENT.1__AT0 .def_186)))
(let ((.def_195 (and .def_187 .def_194)))
(let ((.def_220 (and .def_195 .def_219)))
(let ((.def_93 (= b.time__AT0 b.time__AT1)))
(let ((.def_107 (and .def_93 .def_106)))
(let ((.def_110 (and .def_107 .def_109)))
(let ((.def_113 (and .def_110 .def_112)))
(let ((.def_125 (and .def_113 .def_124)))
(let ((.def_129 (and .def_125 .def_128)))
(let ((.def_130 (or .def_44 .def_129)))
(let ((.def_96 (* (- 1.0) b.time__AT1)))
(let ((.def_99 (+ b.delta__AT0 .def_96)))
(let ((.def_100 (+ b.time__AT0 .def_99)))
(let ((.def_101 (= .def_100 0.0 )))
(let ((.def_102 (or .def_64 .def_101)))
(let ((.def_103 (or b.EVENT.1__AT0 .def_102)))
(let ((.def_94 (or .def_63 .def_93)))
(let ((.def_95 (or b.EVENT.1__AT0 .def_94)))
(let ((.def_104 (and .def_95 .def_103)))
(let ((.def_131 (and .def_104 .def_130)))
(let ((.def_90 (= .def_64 b.event_is_timed__AT1)))
(let ((.def_88 (= b.event_is_timed__AT0 .def_63)))
(let ((.def_91 (and .def_88 .def_90)))
(let ((.def_132 (and .def_91 .def_131)))
(let ((.def_221 (and .def_132 .def_220)))
(let ((.def_225 (and .def_221 .def_224)))
(let ((.def_228 (and .def_225 .def_227)))
(let ((.def_229 (and .def_44 .def_228)))
(let ((.def_248 (and .def_229 .def_247)))
(let ((.def_28 (and .def_25 .def_27)))
(let ((.def_31 (and .def_28 .def_30)))
(let ((.def_249 (and .def_31 .def_248)))
(let ((.def_75 (* 5.0 b.delta__AT0)))
(let ((.def_76 (* b.delta__AT0 .def_75)))
(let ((.def_77 (* (- 1.0) .def_76)))
(let ((.def_80 (+ .def_72 .def_77)))
(let ((.def_68 (* b.x__AT0 b.x__AT0)))
(let ((.def_81 (+ .def_68 .def_80)))
(let ((.def_82 (+ b.y__AT0 .def_81)))
(let ((.def_83 (<= 0.0 .def_82)))
(let ((.def_69 (+ b.y__AT0 .def_68)))
(let ((.def_70 (<= 0.0 .def_69)))
(let ((.def_84 (and .def_70 .def_83)))
(let ((.def_67 (not .def_66)))
(let ((.def_85 (or .def_67 .def_84)))
(let ((.def_86 (or .def_64 .def_85)))
(let ((.def_53 (<= .def_52 b.y__AT0)))
(let ((.def_59 (and .def_53 .def_58)))
(let ((.def_47 (or .def_44 .def_46)))
(let ((.def_37 (or .def_25 .def_27)))
(let ((.def_41 (or b.counter.3__AT0 .def_37)))
(let ((.def_38 (or b.counter.2__AT0 .def_37)))
(let ((.def_36 (or .def_27 .def_30)))
(let ((.def_39 (and .def_36 .def_38)))
(let ((.def_40 (or .def_33 .def_39)))
(let ((.def_42 (and .def_40 .def_41)))
(let ((.def_48 (and .def_42 .def_47)))
(let ((.def_60 (and .def_48 .def_59)))
(let ((.def_34 (and .def_31 .def_33)))
(let ((.def_22 (= b.y__AT0 10.0 )))
(let ((.def_18 (= b.x__AT0 0.0 )))
(let ((.def_14 (= b.time__AT0 0.0 )))
(let ((.def_16 (and .def_14 b.event_is_timed__AT0)))
(let ((.def_19 (and .def_16 .def_18)))
(let ((.def_23 (and .def_19 .def_22)))
(let ((.def_35 (and .def_23 .def_34)))
(let ((.def_61 (and .def_35 .def_60)))
(let ((.def_7 (and .def_4 .def_6)))
(let ((.def_10 (and .def_7 .def_9)))
(let ((.def_11 (not .def_10)))
(let ((.def_62 (and .def_11 .def_61)))
(let ((.def_87 (and .def_62 .def_86)))
(let ((.def_250 (and .def_87 .def_249)))
(let ((.def_273 (and .def_250 .def_272)))
(let ((.def_432 (and .def_273 .def_431)))
(let ((.def_455 (and .def_432 .def_454)))
(let ((.def_614 (and .def_455 .def_613)))
(let ((.def_637 (and .def_614 .def_636)))
(let ((.def_790 (and .def_637 .def_789)))
(let ((.def_813 (and .def_790 .def_812)))
.def_813)))))))))))))))))))))))))))))))))))))))))))))))))))))))))))))))))))))))))))))))))))))))))))))))))))))))))))))))))))))))))))))))))))))))))))))))))))))))))))))))))))))))))))))))))))))))))))))))))))))))))))))))))))))))))))))))))))))))))))))))))))))))))))))))))))))))))))))))))))))))))))))))))))))))))))))))))))))))))))))))))))))))))))))))))))))))))))))))))))))))))))))))))))))))))))))))))))))))))))))))))))))))))))))))))))))))))))))))))))))))))))))))))))))))))))))))))))))))))))))))))))))))))))))))))))))))))))))))))))))))))))))))))))))))))))))))))))))))))))))))))))))))))))))))))))))))))))))))))))))))))))))))))))))))))))))))))))))))))))))))))))))))))))))))))))))))))))))))))))))))))))))))))))))))
(check-sat)
(exit)
